HUN,8,6,596
0,27,2,30,1,3,4,30,5,19,3,25
1,5,0,22,2,19,5,6,3,23,4,15
0,14,2,18,1,29,5,16,3,30,4,4
2,29,0,19,1,14,4,16,5,17,3,29
1,23,2,16,0,30,4,3,5,20,3,26
2,30,1,14,0,3,4,20,3,21,5,4
2,22,0,29,1,26,3,15,5,23,4,3
2,6,0,24,1,15,4,5,5,15,3,11
